153
110
38
10
47
18
141
31
7
14
42
9
8
42
275
18
157
20
0
33
17
0
10
20
14
62
37
0
0
0
20
82
0
14
70
11
69
110
20
19
57
33
49
28
31
22
93
0
15
44
233
59
10
12
11
23
9
161
16
25
31
41
9
0
69
45
136
19
0
0
0
23
23
38
0
30
16
114
0
0
53
68
33
0
15
33
32
15
13
41
0
13
33
0
14
159
181
0
0
0
